(declare-datatypes ((List_Int 0)) (((Nil_List_Int ) (Cons_List_Int (Cons_List_Int_0 Int) (Cons_List_Int_1 List_Int)))))
(declare-fun fn_count (Int List_Int) Int)
(declare-fun fn_length_Int (List_Int) Int)
(declare-fun fn_is_sorted (List_Int) Bool)
(declare-datatypes ((Tree 0)) (((Leaf_Tree ) (Node_Tree (Node_Tree_0 Tree) (Node_Tree_1 Int) (Node_Tree_2 Tree)))))
(declare-fun fn_t_size (Tree) Int)
(declare-fun fn_t_flatten (Tree) List_Int)
(declare-fun fn_append_Int (List_Int List_Int) List_Int)
(declare-fun fn_t_insert (Tree Int) Tree)
(assert (forall ((p0 Int) (p1 List_Int)) (! (= (fn_count p0 p1) (ite ((_ is Nil_List_Int) p1) 0 (ite (= (Cons_List_Int_0 p1) p0) (+ 1 (fn_count p0 (Cons_List_Int_1 p1))) (fn_count p0 (Cons_List_Int_1 p1))))) :pattern ((fn_count p0 p1)))))
(assert (forall ((p0 List_Int)) (! (= (fn_length_Int p0) (ite ((_ is Nil_List_Int) p0) 0 (+ 1 (fn_length_Int (Cons_List_Int_1 p0))))) :pattern ((fn_length_Int p0)))))
(assert (forall ((p0 List_Int)) (! (= (fn_is_sorted p0) (ite ((_ is Nil_List_Int) p0) true (ite ((_ is Nil_List_Int) (Cons_List_Int_1 p0)) true (and (<= (Cons_List_Int_0 p0) (Cons_List_Int_0 (Cons_List_Int_1 p0))) (fn_is_sorted (Cons_List_Int_1 p0)))))) :pattern ((fn_is_sorted p0)))))
(assert (forall ((p0 Tree)) (! (= (fn_t_size p0) (ite ((_ is Leaf_Tree) p0) 0 (+ (fn_t_size (Node_Tree_0 p0)) (+ 1 (fn_t_size (Node_Tree_2 p0)))))) :pattern ((fn_t_size p0)))))
(assert (forall ((p0 List_Int) (p1 List_Int)) (! (= (fn_append_Int p0 p1) (ite ((_ is Nil_List_Int) p0) p1 (Cons_List_Int (Cons_List_Int_0 p0) (fn_append_Int (Cons_List_Int_1 p0) p1)))) :pattern ((fn_append_Int p0 p1)))))
(assert (forall ((p0 Tree)) (! (= (fn_t_flatten p0) (ite ((_ is Leaf_Tree) p0) Nil_List_Int (fn_append_Int (fn_t_flatten (Node_Tree_0 p0)) (Cons_List_Int (Node_Tree_1 p0) (fn_t_flatten (Node_Tree_2 p0)))))) :pattern ((fn_t_flatten p0)))))
(assert (forall ((p0 Tree) (p1 Int)) (! (= (fn_t_insert p0 p1) (ite ((_ is Leaf_Tree) p0) (Node_Tree Leaf_Tree p1 Leaf_Tree) (ite (< p1 (Node_Tree_1 p0)) (Node_Tree (fn_t_insert (Node_Tree_0 p0) p1) (Node_Tree_1 p0) (Node_Tree_2 p0)) (Node_Tree (Node_Tree_0 p0) (Node_Tree_1 p0) (fn_t_insert (Node_Tree_2 p0) p1))))) :pattern ((fn_t_insert p0 p1)))))
(assert (forall ((q0 Tree) (q1 Int) (q2 Tree)) (= (fn_t_size (Node_Tree q0 q1 q2)) (+ (+ (fn_t_size q0) 1) (fn_t_size q2)))))
(assert (forall ((q0 Tree)) (= (fn_t_size q0) (fn_length_Int (fn_t_flatten q0)))))
(assert (forall ((q0 Tree) (q1 Int)) (= (fn_t_size (fn_t_insert q0 q1)) (+ (fn_t_size q0) 1))))
(declare-const b0 Int)
(assert (not (= (fn_t_size Leaf_Tree) 0)))
(check-sat)
